0 1796
1 1796
2 1796
3 1796
4 1795
5 1795
6 1795
7 1758
8 1742
9 1692
10 1638
11 1638
12 1597
13 1597
14 1597
15 1563
16 1563
17 1563
18 1530
19 1413
20 1413
21 1413
22 1413
23 1413
24 1413
25 1413
26 1413
27 1413
28 1407
29 1407
30 1407
31 1407
32 1407
33 1402
34 1402
35 1402
36 1380
37 1380
38 1380
39 1380
40 1380
41 1363
42 1363
43 1340
44 1340
45 1340
46 1340
47 1334
48 1291
49 1279
50 1279
51 1243
52 1243
53 1223
54 1223
55 1217
56 1217
57 1217
58 1217
59 1217
60 1217
61 1217
62 1217
63 1217
64 1217
65 1217
66 1155
67 1155
68 1155
69 1155
70 1155
71 1155
72 1155
73 1155
74 1155
75 1155
76 1155
77 1148
78 1134
79 1134
80 1134
81 1134
82 1134
83 1134
84 1106
85 1106
86 1106
87 1106
88 1106
89 1106
90 1106
91 1106
92 1106
93 1106
94 1106
95 1104
96 1093
97 1093
98 1074
99 1052
100 1052
101 1052
102 1052
103 1015
104 1015
105 1015
106 1015
107 1015
108 1013
109 1005
110 1005
111 1005
112 1005
113 1005
114 1005
115 1005
116 1005
117 1005
118 1005
119 1005
120 1005
121 1005
122 1005
123 1005
124 970
125 970
126 970
127 970
128 970
129 970
130 959
131 959
132 959
133 959
134 959
135 949
136 949
137 949
138 949
139 949
140 949
141 949
142 949
143 949
144 949
145 942
146 942
147 942
148 942
149 942
150 930
151 930
152 930
153 930
154 930
155 930
156 930
157 930
158 930
159 930
160 930
161 926
162 926
163 926
164 926
165 926
166 926
167 926
168 926
169 926
170 926
171 926
172 926
173 904
174 904
175 904
176 904
177 904
178 904
179 904
180 904
181 904
182 904
183 904
184 904
185 904
186 904
187 904
188 904
189 904
190 904
191 904
192 904
193 904
194 898
195 898
196 898
197 898
198 898
199 898
200 898
201 898
202 898
203 898
204 898
205 898
206 898
207 898
208 898
209 898
210 898
211 891
212 891
213 891
214 888
215 888
216 888
217 888
218 888
219 888
220 888
221 888
222 888
223 888
224 888
225 888
226 888
227 888
228 888
229 888
230 888
231 888
232 886
233 886
234 886
235 886
236 886
237 886
238 886
239 881
240 881
241 881
242 881
243 881
244 881
245 881
246 881
247 881
248 881
249 881
250 881
251 881
252 881
253 881
254 878
255 878
256 878
257 878
258 878
259 878
260 878
261 878
262 878
263 878
264 878
265 878
266 878
267 878
268 870
269 870
270 870
271 870
272 870
273 870
274 870
275 870
276 870
277 870
278 870
279 870
280 870
281 870
282 870
283 870
284 870
285 870
286 870
287 870
288 870
289 870
290 870
291 870
292 870
293 870
294 868
295 868
296 868
297 868
298 868
299 868
300 868
301 868
302 868
303 868
304 868
305 868
306 868
307 868
308 868
309 868
310 868
311 868
312 868
313 866
314 865
315 865
316 865
317 865
318 865
319 865
320 862
321 862
322 862
323 862
324 857
325 855
326 855
327 855
328 855
329 855
330 855
331 855
332 855
333 854
334 854
335 854
336 854
337 854
338 854
339 854
340 854
341 854
342 854
343 854
344 854
345 854
346 854
347 851
348 851
349 851
350 851
351 851
352 851
353 851
354 851
355 851
356 851
357 851
358 851
359 851
360 851
361 851
362 851
363 851
364 851
365 851
366 851
367 851
368 851
369 851
370 851
371 851
372 851
373 851
374 851
375 851
376 851
377 851
378 851
379 850
380 850
381 850
382 850
383 850
384 850
385 850
386 850
387 850
388 850
389 850
390 850
391 850
392 850
393 849
394 849
395 849
396 849
397 849
398 849
399 846
400 846
401 846
402 846
403 846
404 846
405 846
406 846
407 846
408 846
409 846
410 846
411 846
412 846
413 846
414 846
415 846
416 840
417 840
418 840
419 840
420 840
421 840
422 840
423 840
424 840
425 840
426 840
427 840
428 840
429 840
430 840
431 840
432 840
433 840
434 840
435 840
436 840
437 840
438 840
439 840
440 840
441 840
442 840
443 840
444 840
445 840
446 840
447 840
448 840
449 840
450 840
451 840
452 840
453 840
454 840
455 840
456 840
457 840
458 840
459 840
460 840
461 840
462 840
463 840
464 840
465 840
466 840
467 840
468 840
469 840
470 840
471 838
472 838
473 838
474 838
475 838
476 838
477 838
478 838
479 838
480 838
481 838
482 838
483 838
484 838
485 838
486 838
487 838
488 838
489 838
490 838
491 838
492 838
493 838
494 838
495 838
496 838
497 838
498 838
499 838
500 838
501 838
502 838
503 838
504 838
505 838
506 838
507 838
508 838
509 838
510 838
511 838
512 838
513 838
514 838
515 838
516 838
517 838
518 838
519 838
520 838
521 838
522 838
523 838
524 838
525 838
526 838
527 838
528 838
529 838
530 838
531 838
532 838
533 838
534 838
535 838
536 838
537 838
538 838
539 838
540 838
541 838
542 838
543 838
544 838
545 838
546 838
547 838
548 838
549 838
550 838
551 838
552 838
553 838
554 838
555 838
556 838
557 838
558 838
559 838
560 838
561 838
562 838
563 838
564 838
565 838
566 838
567 838
568 838
569 838
570 838
571 838
572 838
573 838
574 838
575 838
576 838
577 838
578 838
579 838
580 838
581 838
582 838
583 838
584 838
585 838
586 838
587 838
588 838
589 838
590 838
591 838
592 838
593 838
594 838
595 838
596 838
597 838
598 838
599 838
600 838
601 838
602 838
603 838
604 838
605 838
606 838
607 838
608 838
609 838
610 838
611 838
612 838
613 838
614 838
615 838
616 838
617 838
618 838
619 838
620 838
621 838
622 838
623 838
624 838
625 838
626 838
627 838
628 838
629 838
630 838
631 838
632 838
633 838
634 838
635 838
636 838
637 838
638 838
639 838
640 838
641 838
642 838
643 838
644 838
645 838
646 838
647 838
648 838
649 838
650 838
651 838
652 838
653 838
654 838
655 838
656 838
657 838
658 838
659 838
660 838
661 838
662 838
663 838
664 838
665 838
666 838
667 838
668 838
669 838
670 838
671 838
672 838
673 838
674 838
675 838
676 838
677 838
678 838
679 838
680 838
681 838
682 838
683 838
684 838
685 838
686 838
687 838
688 838
689 838
690 838
691 838
692 838
693 838
694 838
695 838
696 838
697 838
698 838
699 838
700 838
701 838
702 838
703 838
704 838
705 838
706 838
707 838
708 838
709 838
710 838
711 838
712 838
713 838
714 838
715 838
716 838
717 838
718 838
719 838
720 838
721 838
722 838
723 838
724 838
725 838
726 838
727 838
728 838
729 838
730 838
731 838
732 838
733 838
734 838
735 838
736 838
737 838
738 838
739 838
740 838
741 838
742 838
743 838
744 838
745 838
746 838
747 838
748 838
749 838
750 838
751 838
752 838
753 838
754 838
755 838
756 838
757 838
758 838
759 838
760 838
761 838
762 838
763 838
764 838
765 838
766 838
767 838
768 838
769 838
770 838
771 838
772 838
773 838
774 838
775 838
776 838
777 838
778 838
779 838
780 838
781 838
782 838
783 838
784 838
785 838
786 838
787 838
788 838
789 838
790 838
791 838
792 838
793 838
794 838
795 838
796 838
797 838
798 838
799 838
800 838
801 838
802 838
803 838
804 838
805 838
806 838
807 838
808 838
809 838
810 838
811 838
812 838
813 838
814 838
815 838
816 838
817 838
818 838
819 838
820 838
821 838
822 838
823 838
824 838
825 838
826 838
827 838
828 838
829 838
830 838
831 838
832 838
833 838
834 838
835 838
836 838
837 838
838 838
839 838
840 838
841 838
842 838
843 838
844 838
845 838
846 838
847 838
848 838
849 838
850 838
851 838
852 838
853 838
854 838
855 838
856 838
857 838
858 838
859 838
860 838
861 838
862 838
863 838
864 838
865 838
866 838
867 838
868 838
869 838
870 838
871 838
872 838
873 838
874 838
875 838
876 838
877 838
878 838
879 838
880 838
881 838
882 838
883 838
884 838
885 838
886 838
887 838
888 838
889 838
890 838
891 838
892 838
893 838
894 838
895 838
896 838
897 838
898 838
899 838
900 838
901 838
902 838
903 838
904 838
905 838
906 838
907 838
908 838
909 838
910 838
911 838
912 838
913 838
914 838
915 838
916 838
917 838
918 838
919 838
920 838
921 838
922 838
923 838
924 838
925 838
926 838
927 838
928 838
929 838
930 838
931 838
932 838
933 838
934 838
935 838
936 838
937 838
938 838
939 838
940 838
941 838
942 838
943 838
944 838
945 838
946 838
947 838
948 838
949 838
950 838
951 838
952 838
953 838
954 838
955 838
956 838
957 838
958 838
959 838
960 838
961 838
962 838
963 838
964 838
965 838
966 838
967 838
968 838
969 838
970 838
971 838
972 838
973 838
974 838
975 838
976 838
977 838
978 838
979 838
980 838
981 838
982 838
983 838
984 838
985 838
986 838
987 838
988 838
989 838
990 838
991 838
992 838
993 838
994 838
995 838
996 838
997 838
998 838
999 838
Best: [[2,22,32,20,18,14],
       [30,16,23,10,12,5,29,9,19],
       [21,6,26,11,28],
       [25,15,7,24,3,4,8,27],
       [31,17,13]], fitness: 838
